c turning on binary mode checking
c parsing input formula with 745 variables and 198920 clauses
c finished parsing, read 2728822 bytes from proof file
c detected empty clause; start verification via backward checking
c 8142 of 198920 clauses in core                            
c 13774 of 48194 lemmas in core using 366109 resolution steps
c 0 RAT lemmas in core; 8202 redundant literals in core lemmas
s VERIFIED
c verification time: 2.518 seconds
